d1 = 1;
d2 = 1;
c1 = 100;
c2 = 100;
c3 = 100;
Nodes = array1d(1..361,[1, 2, 3, 4, 5, 6, 7, 8, 9, 10, 11, 12, 13, 14, 15, 16, 17, 18, 19, 20, 21, 22, 23, 24, 25, 26, 27, 28, 29, 30, 31, 32, 33, 34, 35, 36, 37, 38, 39, 40, 41, 42, 43, 44, 45, 46, 47, 48, 49, 50, 51, 52, 53, 54, 55, 56, 57, 58, 59, 60, 61, 62, 63, 64, 65, 66, 67, 68, 69, 70, 71, 72, 73, 74, 75, 76, 77, 78, 79, 80, 81, 82, 83, 84, 85, 86, 87, 88, 89, 90, 91, 92, 93, 94, 95, 96, 97, 98, 99, 100, 101, 102, 103, 104, 105, 106, 107, 108, 109, 110, 111, 112, 113, 114, 115, 116, 117, 118, 119, 120, 121, 122, 123, 124, 125, 126, 127, 128, 129, 130, 131, 132, 133, 134, 135, 136, 137, 138, 139, 140, 141, 142, 143, 144, 145, 146, 147, 148, 149, 150, 151, 152, 153, 154, 155, 156, 157, 158, 159, 160, 161, 162, 163, 164, 165, 166, 167, 168, 169, 170, 171, 172, 173, 174, 175, 176, 177, 178, 179, 180, 181, 182, 183, 184, 185, 186, 187, 188, 189, 190, 191, 192, 193, 194, 195, 196, 197, 198, 199, 200, 201, 202, 203, 204, 205, 206, 207, 208, 209, 210, 211, 212, 213, 214, 215, 216, 217, 218, 219, 220, 221, 222, 223, 224, 225, 226, 227, 228, 229, 230, 231, 232, 233, 234, 235, 236, 237, 238, 239, 240, 241, 242, 243, 244, 245, 246, 247, 248, 249, 250, 251, 252, 253, 254, 255, 256, 257, 258, 259, 260, 261, 262, 263, 264, 265, 266, 267, 268, 269, 270, 271, 272, 273, 274, 275, 276, 277, 278, 279, 280, 281, 282, 283, 284, 285, 286, 287, 288, 289, 290, 291, 292, 293, 294, 295, 296, 297, 298, 299, 300, 301, 302, 303, 304, 305, 306, 307, 308, 309, 310, 311, 312, 313, 314, 315, 316, 317, 318, 319, 320, 321, 322, 323, 324, 325, 326, 327, 328, 329, 330, 331, 332, 333, 334, 335, 336, 337, 338, 339, 340, 341, 342, 343, 344, 345, 346, 347, 348, 349, 350, 351, 352, 353, 354, 355, 356, 357, 358, 359, 360, 361]);
Link_info = array2d(1..1368, 1..4,[1, 2, 1, 500, 2, 1, 1, 500, 1, 20, 1, 500, 20, 1, 1, 500, 2, 3, 1, 500, 3, 2, 1, 500, 2, 21, 1, 500, 21, 2, 1, 500, 3, 4, 1, 500, 4, 3, 1, 500, 3, 22, 1, 500, 22, 3, 1, 500, 4, 5, 1, 500, 5, 4, 1, 500, 4, 23, 1, 500, 23, 4, 1, 500, 5, 6, 1, 500, 6, 5, 1, 500, 5, 24, 1, 500, 24, 5, 1, 500, 6, 7, 1, 500, 7, 6, 1, 500, 6, 25, 1, 500, 25, 6, 1, 500, 7, 8, 1, 500, 8, 7, 1, 500, 7, 26, 1, 500, 26, 7, 1, 500, 8, 9, 1, 500, 9, 8, 1, 500, 8, 27, 1, 500, 27, 8, 1, 500, 9, 10, 1, 500, 10, 9, 1, 500, 9, 28, 1, 500, 28, 9, 1, 500, 10, 11, 1, 500, 11, 10, 1, 500, 10, 29, 1, 500, 29, 10, 1, 500, 11, 12, 1, 500, 12, 11, 1, 500, 11, 30, 1, 500, 30, 11, 1, 500, 12, 13, 1, 500, 13, 12, 1, 500, 12, 31, 1, 500, 31, 12, 1, 500, 13, 14, 1, 500, 14, 13, 1, 500, 13, 32, 1, 500, 32, 13, 1, 500, 14, 15, 1, 500, 15, 14, 1, 500, 14, 33, 1, 500, 33, 14, 1, 500, 15, 16, 1, 500, 16, 15, 1, 500, 15, 34, 1, 500, 34, 15, 1, 500, 16, 17, 1, 500, 17, 16, 1, 500, 16, 35, 1, 500, 35, 16, 1, 500, 17, 18, 1, 500, 18, 17, 1, 500, 17, 36, 1, 500, 36, 17, 1, 500, 18, 19, 1, 500, 19, 18, 1, 500, 18, 37, 1, 500, 37, 18, 1, 500, 19, 38, 1, 500, 38, 19, 1, 500, 20, 21, 1, 500, 21, 20, 1, 500, 20, 39, 1, 500, 39, 20, 1, 500, 21, 22, 1, 500, 22, 21, 1, 500, 21, 40, 1, 500, 40, 21, 1, 500, 22, 23, 1, 500, 23, 22, 1, 500, 22, 41, 1, 500, 41, 22, 1, 500, 23, 24, 1, 500, 24, 23, 1, 500, 23, 42, 1, 500, 42, 23, 1, 500, 24, 25, 1, 500, 25, 24, 1, 500, 24, 43, 1, 500, 43, 24, 1, 500, 25, 26, 1, 500, 26, 25, 1, 500, 25, 44, 1, 500, 44, 25, 1, 500, 26, 27, 1, 500, 27, 26, 1, 500, 26, 45, 1, 500, 45, 26, 1, 500, 27, 28, 1, 500, 28, 27, 1, 500, 27, 46, 1, 500, 46, 27, 1, 500, 28, 29, 1, 500, 29, 28, 1, 500, 28, 47, 1, 500, 47, 28, 1, 500, 29, 30, 1, 500, 30, 29, 1, 500, 29, 48, 1, 500, 48, 29, 1, 500, 30, 31, 1, 500, 31, 30, 1, 500, 30, 49, 1, 500, 49, 30, 1, 500, 31, 32, 1, 500, 32, 31, 1, 500, 31, 50, 1, 500, 50, 31, 1, 500, 32, 33, 1, 500, 33, 32, 1, 500, 32, 51, 1, 500, 51, 32, 1, 500, 33, 34, 1, 500, 34, 33, 1, 500, 33, 52, 1, 500, 52, 33, 1, 500, 34, 35, 1, 500, 35, 34, 1, 500, 34, 53, 1, 500, 53, 34, 1, 500, 35, 36, 1, 500, 36, 35, 1, 500, 35, 54, 1, 500, 54, 35, 1, 500, 36, 37, 1, 500, 37, 36, 1, 500, 36, 55, 1, 500, 55, 36, 1, 500, 37, 38, 1, 500, 38, 37, 1, 500, 37, 56, 1, 500, 56, 37, 1, 500, 38, 57, 1, 500, 57, 38, 1, 500, 39, 40, 1, 500, 40, 39, 1, 500, 39, 58, 1, 500, 58, 39, 1, 500, 40, 41, 1, 500, 41, 40, 1, 500, 40, 59, 1, 500, 59, 40, 1, 500, 41, 42, 1, 500, 42, 41, 1, 500, 41, 60, 1, 500, 60, 41, 1, 500, 42, 43, 1, 500, 43, 42, 1, 500, 42, 61, 1, 500, 61, 42, 1, 500, 43, 44, 1, 500, 44, 43, 1, 500, 43, 62, 1, 500, 62, 43, 1, 500, 44, 45, 1, 500, 45, 44, 1, 500, 44, 63, 1, 500, 63, 44, 1, 500, 45, 46, 1, 500, 46, 45, 1, 500, 45, 64, 1, 500, 64, 45, 1, 500, 46, 47, 1, 500, 47, 46, 1, 500, 46, 65, 1, 500, 65, 46, 1, 500, 47, 48, 1, 500, 48, 47, 1, 500, 47, 66, 1, 500, 66, 47, 1, 500, 48, 49, 1, 500, 49, 48, 1, 500, 48, 67, 1, 500, 67, 48, 1, 500, 49, 50, 1, 500, 50, 49, 1, 500, 49, 68, 1, 500, 68, 49, 1, 500, 50, 51, 1, 500, 51, 50, 1, 500, 50, 69, 1, 500, 69, 50, 1, 500, 51, 52, 1, 500, 52, 51, 1, 500, 51, 70, 1, 500, 70, 51, 1, 500, 52, 53, 1, 500, 53, 52, 1, 500, 52, 71, 1, 500, 71, 52, 1, 500, 53, 54, 1, 500, 54, 53, 1, 500, 53, 72, 1, 500, 72, 53, 1, 500, 54, 55, 1, 500, 55, 54, 1, 500, 54, 73, 1, 500, 73, 54, 1, 500, 55, 56, 1, 500, 56, 55, 1, 500, 55, 74, 1, 500, 74, 55, 1, 500, 56, 57, 1, 500, 57, 56, 1, 500, 56, 75, 1, 500, 75, 56, 1, 500, 57, 76, 1, 500, 76, 57, 1, 500, 58, 59, 1, 500, 59, 58, 1, 500, 58, 77, 1, 500, 77, 58, 1, 500, 59, 60, 1, 500, 60, 59, 1, 500, 59, 78, 1, 500, 78, 59, 1, 500, 60, 61, 1, 500, 61, 60, 1, 500, 60, 79, 1, 500, 79, 60, 1, 500, 61, 62, 1, 500, 62, 61, 1, 500, 61, 80, 1, 500, 80, 61, 1, 500, 62, 63, 1, 500, 63, 62, 1, 500, 62, 81, 1, 500, 81, 62, 1, 500, 63, 64, 1, 500, 64, 63, 1, 500, 63, 82, 1, 500, 82, 63, 1, 500, 64, 65, 1, 500, 65, 64, 1, 500, 64, 83, 1, 500, 83, 64, 1, 500, 65, 66, 1, 500, 66, 65, 1, 500, 65, 84, 1, 500, 84, 65, 1, 500, 66, 67, 1, 500, 67, 66, 1, 500, 66, 85, 1, 500, 85, 66, 1, 500, 67, 68, 1, 500, 68, 67, 1, 500, 67, 86, 1, 500, 86, 67, 1, 500, 68, 69, 1, 500, 69, 68, 1, 500, 68, 87, 1, 500, 87, 68, 1, 500, 69, 70, 1, 500, 70, 69, 1, 500, 69, 88, 1, 500, 88, 69, 1, 500, 70, 71, 1, 500, 71, 70, 1, 500, 70, 89, 1, 500, 89, 70, 1, 500, 71, 72, 1, 500, 72, 71, 1, 500, 71, 90, 1, 500, 90, 71, 1, 500, 72, 73, 1, 500, 73, 72, 1, 500, 72, 91, 1, 500, 91, 72, 1, 500, 73, 74, 1, 500, 74, 73, 1, 500, 73, 92, 1, 500, 92, 73, 1, 500, 74, 75, 1, 500, 75, 74, 1, 500, 74, 93, 1, 500, 93, 74, 1, 500, 75, 76, 1, 500, 76, 75, 1, 500, 75, 94, 1, 500, 94, 75, 1, 500, 76, 95, 1, 500, 95, 76, 1, 500, 77, 78, 1, 500, 78, 77, 1, 500, 77, 96, 1, 500, 96, 77, 1, 500, 78, 79, 1, 500, 79, 78, 1, 500, 78, 97, 1, 500, 97, 78, 1, 500, 79, 80, 1, 500, 80, 79, 1, 500, 79, 98, 1, 500, 98, 79, 1, 500, 80, 81, 1, 500, 81, 80, 1, 500, 80, 99, 1, 500, 99, 80, 1, 500, 81, 82, 1, 500, 82, 81, 1, 500, 81, 100, 1, 500, 100, 81, 1, 500, 82, 83, 1, 500, 83, 82, 1, 500, 82, 101, 1, 500, 101, 82, 1, 500, 83, 84, 1, 500, 84, 83, 1, 500, 83, 102, 1, 500, 102, 83, 1, 500, 84, 85, 1, 500, 85, 84, 1, 500, 84, 103, 1, 500, 103, 84, 1, 500, 85, 86, 1, 500, 86, 85, 1, 500, 85, 104, 1, 500, 104, 85, 1, 500, 86, 87, 1, 500, 87, 86, 1, 500, 86, 105, 1, 500, 105, 86, 1, 500, 87, 88, 1, 500, 88, 87, 1, 500, 87, 106, 1, 500, 106, 87, 1, 500, 88, 89, 1, 500, 89, 88, 1, 500, 88, 107, 1, 500, 107, 88, 1, 500, 89, 90, 1, 500, 90, 89, 1, 500, 89, 108, 1, 500, 108, 89, 1, 500, 90, 91, 1, 500, 91, 90, 1, 500, 90, 109, 1, 500, 109, 90, 1, 500, 91, 92, 1, 500, 92, 91, 1, 500, 91, 110, 1, 500, 110, 91, 1, 500, 92, 93, 1, 500, 93, 92, 1, 500, 92, 111, 1, 500, 111, 92, 1, 500, 93, 94, 1, 500, 94, 93, 1, 500, 93, 112, 1, 500, 112, 93, 1, 500, 94, 95, 1, 500, 95, 94, 1, 500, 94, 113, 1, 500, 113, 94, 1, 500, 95, 114, 1, 500, 114, 95, 1, 500, 96, 97, 1, 500, 97, 96, 1, 500, 96, 115, 1, 500, 115, 96, 1, 500, 97, 98, 1, 500, 98, 97, 1, 500, 97, 116, 1, 500, 116, 97, 1, 500, 98, 99, 1, 500, 99, 98, 1, 500, 98, 117, 1, 500, 117, 98, 1, 500, 99, 100, 1, 500, 100, 99, 1, 500, 99, 118, 1, 500, 118, 99, 1, 500, 100, 101, 1, 500, 101, 100, 1, 500, 100, 119, 1, 500, 119, 100, 1, 500, 101, 102, 1, 500, 102, 101, 1, 500, 101, 120, 1, 500, 120, 101, 1, 500, 102, 103, 1, 500, 103, 102, 1, 500, 102, 121, 1, 500, 121, 102, 1, 500, 103, 104, 1, 500, 104, 103, 1, 500, 103, 122, 1, 500, 122, 103, 1, 500, 104, 105, 1, 500, 105, 104, 1, 500, 104, 123, 1, 500, 123, 104, 1, 500, 105, 106, 1, 500, 106, 105, 1, 500, 105, 124, 1, 500, 124, 105, 1, 500, 106, 107, 1, 500, 107, 106, 1, 500, 106, 125, 1, 500, 125, 106, 1, 500, 107, 108, 1, 500, 108, 107, 1, 500, 107, 126, 1, 500, 126, 107, 1, 500, 108, 109, 1, 500, 109, 108, 1, 500, 108, 127, 1, 500, 127, 108, 1, 500, 109, 110, 1, 500, 110, 109, 1, 500, 109, 128, 1, 500, 128, 109, 1, 500, 110, 111, 1, 500, 111, 110, 1, 500, 110, 129, 1, 500, 129, 110, 1, 500, 111, 112, 1, 500, 112, 111, 1, 500, 111, 130, 1, 500, 130, 111, 1, 500, 112, 113, 1, 500, 113, 112, 1, 500, 112, 131, 1, 500, 131, 112, 1, 500, 113, 114, 1, 500, 114, 113, 1, 500, 113, 132, 1, 500, 132, 113, 1, 500, 114, 133, 1, 500, 133, 114, 1, 500, 115, 116, 1, 500, 116, 115, 1, 500, 115, 134, 1, 500, 134, 115, 1, 500, 116, 117, 1, 500, 117, 116, 1, 500, 116, 135, 1, 500, 135, 116, 1, 500, 117, 118, 1, 500, 118, 117, 1, 500, 117, 136, 1, 500, 136, 117, 1, 500, 118, 119, 1, 500, 119, 118, 1, 500, 118, 137, 1, 500, 137, 118, 1, 500, 119, 120, 1, 500, 120, 119, 1, 500, 119, 138, 1, 500, 138, 119, 1, 500, 120, 121, 1, 500, 121, 120, 1, 500, 120, 139, 1, 500, 139, 120, 1, 500, 121, 122, 1, 500, 122, 121, 1, 500, 121, 140, 1, 500, 140, 121, 1, 500, 122, 123, 1, 500, 123, 122, 1, 500, 122, 141, 1, 500, 141, 122, 1, 500, 123, 124, 1, 500, 124, 123, 1, 500, 123, 142, 1, 500, 142, 123, 1, 500, 124, 125, 1, 500, 125, 124, 1, 500, 124, 143, 1, 500, 143, 124, 1, 500, 125, 126, 1, 500, 126, 125, 1, 500, 125, 144, 1, 500, 144, 125, 1, 500, 126, 127, 1, 500, 127, 126, 1, 500, 126, 145, 1, 500, 145, 126, 1, 500, 127, 128, 1, 500, 128, 127, 1, 500, 127, 146, 1, 500, 146, 127, 1, 500, 128, 129, 1, 500, 129, 128, 1, 500, 128, 147, 1, 500, 147, 128, 1, 500, 129, 130, 1, 500, 130, 129, 1, 500, 129, 148, 1, 500, 148, 129, 1, 500, 130, 131, 1, 500, 131, 130, 1, 500, 130, 149, 1, 500, 149, 130, 1, 500, 131, 132, 1, 500, 132, 131, 1, 500, 131, 150, 1, 500, 150, 131, 1, 500, 132, 133, 1, 500, 133, 132, 1, 500, 132, 151, 1, 500, 151, 132, 1, 500, 133, 152, 1, 500, 152, 133, 1, 500, 134, 135, 1, 500, 135, 134, 1, 500, 134, 153, 1, 500, 153, 134, 1, 500, 135, 136, 1, 500, 136, 135, 1, 500, 135, 154, 1, 500, 154, 135, 1, 500, 136, 137, 1, 500, 137, 136, 1, 500, 136, 155, 1, 500, 155, 136, 1, 500, 137, 138, 1, 500, 138, 137, 1, 500, 137, 156, 1, 500, 156, 137, 1, 500, 138, 139, 1, 500, 139, 138, 1, 500, 138, 157, 1, 500, 157, 138, 1, 500, 139, 140, 1, 500, 140, 139, 1, 500, 139, 158, 1, 500, 158, 139, 1, 500, 140, 141, 1, 500, 141, 140, 1, 500, 140, 159, 1, 500, 159, 140, 1, 500, 141, 142, 1, 500, 142, 141, 1, 500, 141, 160, 1, 500, 160, 141, 1, 500, 142, 143, 1, 500, 143, 142, 1, 500, 142, 161, 1, 500, 161, 142, 1, 500, 143, 144, 1, 500, 144, 143, 1, 500, 143, 162, 1, 500, 162, 143, 1, 500, 144, 145, 1, 500, 145, 144, 1, 500, 144, 163, 1, 500, 163, 144, 1, 500, 145, 146, 1, 500, 146, 145, 1, 500, 145, 164, 1, 500, 164, 145, 1, 500, 146, 147, 1, 500, 147, 146, 1, 500, 146, 165, 1, 500, 165, 146, 1, 500, 147, 148, 1, 500, 148, 147, 1, 500, 147, 166, 1, 500, 166, 147, 1, 500, 148, 149, 1, 500, 149, 148, 1, 500, 148, 167, 1, 500, 167, 148, 1, 500, 149, 150, 1, 500, 150, 149, 1, 500, 149, 168, 1, 500, 168, 149, 1, 500, 150, 151, 1, 500, 151, 150, 1, 500, 150, 169, 1, 500, 169, 150, 1, 500, 151, 152, 1, 500, 152, 151, 1, 500, 151, 170, 1, 500, 170, 151, 1, 500, 152, 171, 1, 500, 171, 152, 1, 500, 153, 154, 1, 500, 154, 153, 1, 500, 153, 172, 1, 500, 172, 153, 1, 500, 154, 155, 1, 500, 155, 154, 1, 500, 154, 173, 1, 500, 173, 154, 1, 500, 155, 156, 1, 500, 156, 155, 1, 500, 155, 174, 1, 500, 174, 155, 1, 500, 156, 157, 1, 500, 157, 156, 1, 500, 156, 175, 1, 500, 175, 156, 1, 500, 157, 158, 1, 500, 158, 157, 1, 500, 157, 176, 1, 500, 176, 157, 1, 500, 158, 159, 1, 500, 159, 158, 1, 500, 158, 177, 1, 500, 177, 158, 1, 500, 159, 160, 1, 500, 160, 159, 1, 500, 159, 178, 1, 500, 178, 159, 1, 500, 160, 161, 1, 500, 161, 160, 1, 500, 160, 179, 1, 500, 179, 160, 1, 500, 161, 162, 1, 500, 162, 161, 1, 500, 161, 180, 1, 500, 180, 161, 1, 500, 162, 163, 1, 500, 163, 162, 1, 500, 162, 181, 1, 500, 181, 162, 1, 500, 163, 164, 1, 500, 164, 163, 1, 500, 163, 182, 1, 500, 182, 163, 1, 500, 164, 165, 1, 500, 165, 164, 1, 500, 164, 183, 1, 500, 183, 164, 1, 500, 165, 166, 1, 500, 166, 165, 1, 500, 165, 184, 1, 500, 184, 165, 1, 500, 166, 167, 1, 500, 167, 166, 1, 500, 166, 185, 1, 500, 185, 166, 1, 500, 167, 168, 1, 500, 168, 167, 1, 500, 167, 186, 1, 500, 186, 167, 1, 500, 168, 169, 1, 500, 169, 168, 1, 500, 168, 187, 1, 500, 187, 168, 1, 500, 169, 170, 1, 500, 170, 169, 1, 500, 169, 188, 1, 500, 188, 169, 1, 500, 170, 171, 1, 500, 171, 170, 1, 500, 170, 189, 1, 500, 189, 170, 1, 500, 171, 190, 1, 500, 190, 171, 1, 500, 172, 173, 1, 500, 173, 172, 1, 500, 172, 191, 1, 500, 191, 172, 1, 500, 173, 174, 1, 500, 174, 173, 1, 500, 173, 192, 1, 500, 192, 173, 1, 500, 174, 175, 1, 500, 175, 174, 1, 500, 174, 193, 1, 500, 193, 174, 1, 500, 175, 176, 1, 500, 176, 175, 1, 500, 175, 194, 1, 500, 194, 175, 1, 500, 176, 177, 1, 500, 177, 176, 1, 500, 176, 195, 1, 500, 195, 176, 1, 500, 177, 178, 1, 500, 178, 177, 1, 500, 177, 196, 1, 500, 196, 177, 1, 500, 178, 179, 1, 500, 179, 178, 1, 500, 178, 197, 1, 500, 197, 178, 1, 500, 179, 180, 1, 500, 180, 179, 1, 500, 179, 198, 1, 500, 198, 179, 1, 500, 180, 181, 1, 500, 181, 180, 1, 500, 180, 199, 1, 500, 199, 180, 1, 500, 181, 182, 1, 500, 182, 181, 1, 500, 181, 200, 1, 500, 200, 181, 1, 500, 182, 183, 1, 500, 183, 182, 1, 500, 182, 201, 1, 500, 201, 182, 1, 500, 183, 184, 1, 500, 184, 183, 1, 500, 183, 202, 1, 500, 202, 183, 1, 500, 184, 185, 1, 500, 185, 184, 1, 500, 184, 203, 1, 500, 203, 184, 1, 500, 185, 186, 1, 500, 186, 185, 1, 500, 185, 204, 1, 500, 204, 185, 1, 500, 186, 187, 1, 500, 187, 186, 1, 500, 186, 205, 1, 500, 205, 186, 1, 500, 187, 188, 1, 500, 188, 187, 1, 500, 187, 206, 1, 500, 206, 187, 1, 500, 188, 189, 1, 500, 189, 188, 1, 500, 188, 207, 1, 500, 207, 188, 1, 500, 189, 190, 1, 500, 190, 189, 1, 500, 189, 208, 1, 500, 208, 189, 1, 500, 190, 209, 1, 500, 209, 190, 1, 500, 191, 192, 1, 500, 192, 191, 1, 500, 191, 210, 1, 500, 210, 191, 1, 500, 192, 193, 1, 500, 193, 192, 1, 500, 192, 211, 1, 500, 211, 192, 1, 500, 193, 194, 1, 500, 194, 193, 1, 500, 193, 212, 1, 500, 212, 193, 1, 500, 194, 195, 1, 500, 195, 194, 1, 500, 194, 213, 1, 500, 213, 194, 1, 500, 195, 196, 1, 500, 196, 195, 1, 500, 195, 214, 1, 500, 214, 195, 1, 500, 196, 197, 1, 500, 197, 196, 1, 500, 196, 215, 1, 500, 215, 196, 1, 500, 197, 198, 1, 500, 198, 197, 1, 500, 197, 216, 1, 500, 216, 197, 1, 500, 198, 199, 1, 500, 199, 198, 1, 500, 198, 217, 1, 500, 217, 198, 1, 500, 199, 200, 1, 500, 200, 199, 1, 500, 199, 218, 1, 500, 218, 199, 1, 500, 200, 201, 1, 500, 201, 200, 1, 500, 200, 219, 1, 500, 219, 200, 1, 500, 201, 202, 1, 500, 202, 201, 1, 500, 201, 220, 1, 500, 220, 201, 1, 500, 202, 203, 1, 500, 203, 202, 1, 500, 202, 221, 1, 500, 221, 202, 1, 500, 203, 204, 1, 500, 204, 203, 1, 500, 203, 222, 1, 500, 222, 203, 1, 500, 204, 205, 1, 500, 205, 204, 1, 500, 204, 223, 1, 500, 223, 204, 1, 500, 205, 206, 1, 500, 206, 205, 1, 500, 205, 224, 1, 500, 224, 205, 1, 500, 206, 207, 1, 500, 207, 206, 1, 500, 206, 225, 1, 500, 225, 206, 1, 500, 207, 208, 1, 500, 208, 207, 1, 500, 207, 226, 1, 500, 226, 207, 1, 500, 208, 209, 1, 500, 209, 208, 1, 500, 208, 227, 1, 500, 227, 208, 1, 500, 209, 228, 1, 500, 228, 209, 1, 500, 210, 211, 1, 500, 211, 210, 1, 500, 210, 229, 1, 500, 229, 210, 1, 500, 211, 212, 1, 500, 212, 211, 1, 500, 211, 230, 1, 500, 230, 211, 1, 500, 212, 213, 1, 500, 213, 212, 1, 500, 212, 231, 1, 500, 231, 212, 1, 500, 213, 214, 1, 500, 214, 213, 1, 500, 213, 232, 1, 500, 232, 213, 1, 500, 214, 215, 1, 500, 215, 214, 1, 500, 214, 233, 1, 500, 233, 214, 1, 500, 215, 216, 1, 500, 216, 215, 1, 500, 215, 234, 1, 500, 234, 215, 1, 500, 216, 217, 1, 500, 217, 216, 1, 500, 216, 235, 1, 500, 235, 216, 1, 500, 217, 218, 1, 500, 218, 217, 1, 500, 217, 236, 1, 500, 236, 217, 1, 500, 218, 219, 1, 500, 219, 218, 1, 500, 218, 237, 1, 500, 237, 218, 1, 500, 219, 220, 1, 500, 220, 219, 1, 500, 219, 238, 1, 500, 238, 219, 1, 500, 220, 221, 1, 500, 221, 220, 1, 500, 220, 239, 1, 500, 239, 220, 1, 500, 221, 222, 1, 500, 222, 221, 1, 500, 221, 240, 1, 500, 240, 221, 1, 500, 222, 223, 1, 500, 223, 222, 1, 500, 222, 241, 1, 500, 241, 222, 1, 500, 223, 224, 1, 500, 224, 223, 1, 500, 223, 242, 1, 500, 242, 223, 1, 500, 224, 225, 1, 500, 225, 224, 1, 500, 224, 243, 1, 500, 243, 224, 1, 500, 225, 226, 1, 500, 226, 225, 1, 500, 225, 244, 1, 500, 244, 225, 1, 500, 226, 227, 1, 500, 227, 226, 1, 500, 226, 245, 1, 500, 245, 226, 1, 500, 227, 228, 1, 500, 228, 227, 1, 500, 227, 246, 1, 500, 246, 227, 1, 500, 228, 247, 1, 500, 247, 228, 1, 500, 229, 230, 1, 500, 230, 229, 1, 500, 229, 248, 1, 500, 248, 229, 1, 500, 230, 231, 1, 500, 231, 230, 1, 500, 230, 249, 1, 500, 249, 230, 1, 500, 231, 232, 1, 500, 232, 231, 1, 500, 231, 250, 1, 500, 250, 231, 1, 500, 232, 233, 1, 500, 233, 232, 1, 500, 232, 251, 1, 500, 251, 232, 1, 500, 233, 234, 1, 500, 234, 233, 1, 500, 233, 252, 1, 500, 252, 233, 1, 500, 234, 235, 1, 500, 235, 234, 1, 500, 234, 253, 1, 500, 253, 234, 1, 500, 235, 236, 1, 500, 236, 235, 1, 500, 235, 254, 1, 500, 254, 235, 1, 500, 236, 237, 1, 500, 237, 236, 1, 500, 236, 255, 1, 500, 255, 236, 1, 500, 237, 238, 1, 500, 238, 237, 1, 500, 237, 256, 1, 500, 256, 237, 1, 500, 238, 239, 1, 500, 239, 238, 1, 500, 238, 257, 1, 500, 257, 238, 1, 500, 239, 240, 1, 500, 240, 239, 1, 500, 239, 258, 1, 500, 258, 239, 1, 500, 240, 241, 1, 500, 241, 240, 1, 500, 240, 259, 1, 500, 259, 240, 1, 500, 241, 242, 1, 500, 242, 241, 1, 500, 241, 260, 1, 500, 260, 241, 1, 500, 242, 243, 1, 500, 243, 242, 1, 500, 242, 261, 1, 500, 261, 242, 1, 500, 243, 244, 1, 500, 244, 243, 1, 500, 243, 262, 1, 500, 262, 243, 1, 500, 244, 245, 1, 500, 245, 244, 1, 500, 244, 263, 1, 500, 263, 244, 1, 500, 245, 246, 1, 500, 246, 245, 1, 500, 245, 264, 1, 500, 264, 245, 1, 500, 246, 247, 1, 500, 247, 246, 1, 500, 246, 265, 1, 500, 265, 246, 1, 500, 247, 266, 1, 500, 266, 247, 1, 500, 248, 249, 1, 500, 249, 248, 1, 500, 248, 267, 1, 500, 267, 248, 1, 500, 249, 250, 1, 500, 250, 249, 1, 500, 249, 268, 1, 500, 268, 249, 1, 500, 250, 251, 1, 500, 251, 250, 1, 500, 250, 269, 1, 500, 269, 250, 1, 500, 251, 252, 1, 500, 252, 251, 1, 500, 251, 270, 1, 500, 270, 251, 1, 500, 252, 253, 1, 500, 253, 252, 1, 500, 252, 271, 1, 500, 271, 252, 1, 500, 253, 254, 1, 500, 254, 253, 1, 500, 253, 272, 1, 500, 272, 253, 1, 500, 254, 255, 1, 500, 255, 254, 1, 500, 254, 273, 1, 500, 273, 254, 1, 500, 255, 256, 1, 500, 256, 255, 1, 500, 255, 274, 1, 500, 274, 255, 1, 500, 256, 257, 1, 500, 257, 256, 1, 500, 256, 275, 1, 500, 275, 256, 1, 500, 257, 258, 1, 500, 258, 257, 1, 500, 257, 276, 1, 500, 276, 257, 1, 500, 258, 259, 1, 500, 259, 258, 1, 500, 258, 277, 1, 500, 277, 258, 1, 500, 259, 260, 1, 500, 260, 259, 1, 500, 259, 278, 1, 500, 278, 259, 1, 500, 260, 261, 1, 500, 261, 260, 1, 500, 260, 279, 1, 500, 279, 260, 1, 500, 261, 262, 1, 500, 262, 261, 1, 500, 261, 280, 1, 500, 280, 261, 1, 500, 262, 263, 1, 500, 263, 262, 1, 500, 262, 281, 1, 500, 281, 262, 1, 500, 263, 264, 1, 500, 264, 263, 1, 500, 263, 282, 1, 500, 282, 263, 1, 500, 264, 265, 1, 500, 265, 264, 1, 500, 264, 283, 1, 500, 283, 264, 1, 500, 265, 266, 1, 500, 266, 265, 1, 500, 265, 284, 1, 500, 284, 265, 1, 500, 266, 285, 1, 500, 285, 266, 1, 500, 267, 268, 1, 500, 268, 267, 1, 500, 267, 286, 1, 500, 286, 267, 1, 500, 268, 269, 1, 500, 269, 268, 1, 500, 268, 287, 1, 500, 287, 268, 1, 500, 269, 270, 1, 500, 270, 269, 1, 500, 269, 288, 1, 500, 288, 269, 1, 500, 270, 271, 1, 500, 271, 270, 1, 500, 270, 289, 1, 500, 289, 270, 1, 500, 271, 272, 1, 500, 272, 271, 1, 500, 271, 290, 1, 500, 290, 271, 1, 500, 272, 273, 1, 500, 273, 272, 1, 500, 272, 291, 1, 500, 291, 272, 1, 500, 273, 274, 1, 500, 274, 273, 1, 500, 273, 292, 1, 500, 292, 273, 1, 500, 274, 275, 1, 500, 275, 274, 1, 500, 274, 293, 1, 500, 293, 274, 1, 500, 275, 276, 1, 500, 276, 275, 1, 500, 275, 294, 1, 500, 294, 275, 1, 500, 276, 277, 1, 500, 277, 276, 1, 500, 276, 295, 1, 500, 295, 276, 1, 500, 277, 278, 1, 500, 278, 277, 1, 500, 277, 296, 1, 500, 296, 277, 1, 500, 278, 279, 1, 500, 279, 278, 1, 500, 278, 297, 1, 500, 297, 278, 1, 500, 279, 280, 1, 500, 280, 279, 1, 500, 279, 298, 1, 500, 298, 279, 1, 500, 280, 281, 1, 500, 281, 280, 1, 500, 280, 299, 1, 500, 299, 280, 1, 500, 281, 282, 1, 500, 282, 281, 1, 500, 281, 300, 1, 500, 300, 281, 1, 500, 282, 283, 1, 500, 283, 282, 1, 500, 282, 301, 1, 500, 301, 282, 1, 500, 283, 284, 1, 500, 284, 283, 1, 500, 283, 302, 1, 500, 302, 283, 1, 500, 284, 285, 1, 500, 285, 284, 1, 500, 284, 303, 1, 500, 303, 284, 1, 500, 285, 304, 1, 500, 304, 285, 1, 500, 286, 287, 1, 500, 287, 286, 1, 500, 286, 305, 1, 500, 305, 286, 1, 500, 287, 288, 1, 500, 288, 287, 1, 500, 287, 306, 1, 500, 306, 287, 1, 500, 288, 289, 1, 500, 289, 288, 1, 500, 288, 307, 1, 500, 307, 288, 1, 500, 289, 290, 1, 500, 290, 289, 1, 500, 289, 308, 1, 500, 308, 289, 1, 500, 290, 291, 1, 500, 291, 290, 1, 500, 290, 309, 1, 500, 309, 290, 1, 500, 291, 292, 1, 500, 292, 291, 1, 500, 291, 310, 1, 500, 310, 291, 1, 500, 292, 293, 1, 500, 293, 292, 1, 500, 292, 311, 1, 500, 311, 292, 1, 500, 293, 294, 1, 500, 294, 293, 1, 500, 293, 312, 1, 500, 312, 293, 1, 500, 294, 295, 1, 500, 295, 294, 1, 500, 294, 313, 1, 500, 313, 294, 1, 500, 295, 296, 1, 500, 296, 295, 1, 500, 295, 314, 1, 500, 314, 295, 1, 500, 296, 297, 1, 500, 297, 296, 1, 500, 296, 315, 1, 500, 315, 296, 1, 500, 297, 298, 1, 500, 298, 297, 1, 500, 297, 316, 1, 500, 316, 297, 1, 500, 298, 299, 1, 500, 299, 298, 1, 500, 298, 317, 1, 500, 317, 298, 1, 500, 299, 300, 1, 500, 300, 299, 1, 500, 299, 318, 1, 500, 318, 299, 1, 500, 300, 301, 1, 500, 301, 300, 1, 500, 300, 319, 1, 500, 319, 300, 1, 500, 301, 302, 1, 500, 302, 301, 1, 500, 301, 320, 1, 500, 320, 301, 1, 500, 302, 303, 1, 500, 303, 302, 1, 500, 302, 321, 1, 500, 321, 302, 1, 500, 303, 304, 1, 500, 304, 303, 1, 500, 303, 322, 1, 500, 322, 303, 1, 500, 304, 323, 1, 500, 323, 304, 1, 500, 305, 306, 1, 500, 306, 305, 1, 500, 305, 324, 1, 500, 324, 305, 1, 500, 306, 307, 1, 500, 307, 306, 1, 500, 306, 325, 1, 500, 325, 306, 1, 500, 307, 308, 1, 500, 308, 307, 1, 500, 307, 326, 1, 500, 326, 307, 1, 500, 308, 309, 1, 500, 309, 308, 1, 500, 308, 327, 1, 500, 327, 308, 1, 500, 309, 310, 1, 500, 310, 309, 1, 500, 309, 328, 1, 500, 328, 309, 1, 500, 310, 311, 1, 500, 311, 310, 1, 500, 310, 329, 1, 500, 329, 310, 1, 500, 311, 312, 1, 500, 312, 311, 1, 500, 311, 330, 1, 500, 330, 311, 1, 500, 312, 313, 1, 500, 313, 312, 1, 500, 312, 331, 1, 500, 331, 312, 1, 500, 313, 314, 1, 500, 314, 313, 1, 500, 313, 332, 1, 500, 332, 313, 1, 500, 314, 315, 1, 500, 315, 314, 1, 500, 314, 333, 1, 500, 333, 314, 1, 500, 315, 316, 1, 500, 316, 315, 1, 500, 315, 334, 1, 500, 334, 315, 1, 500, 316, 317, 1, 500, 317, 316, 1, 500, 316, 335, 1, 500, 335, 316, 1, 500, 317, 318, 1, 500, 318, 317, 1, 500, 317, 336, 1, 500, 336, 317, 1, 500, 318, 319, 1, 500, 319, 318, 1, 500, 318, 337, 1, 500, 337, 318, 1, 500, 319, 320, 1, 500, 320, 319, 1, 500, 319, 338, 1, 500, 338, 319, 1, 500, 320, 321, 1, 500, 321, 320, 1, 500, 320, 339, 1, 500, 339, 320, 1, 500, 321, 322, 1, 500, 322, 321, 1, 500, 321, 340, 1, 500, 340, 321, 1, 500, 322, 323, 1, 500, 323, 322, 1, 500, 322, 341, 1, 500, 341, 322, 1, 500, 323, 342, 1, 500, 342, 323, 1, 500, 324, 325, 1, 500, 325, 324, 1, 500, 324, 343, 1, 500, 343, 324, 1, 500, 325, 326, 1, 500, 326, 325, 1, 500, 325, 344, 1, 500, 344, 325, 1, 500, 326, 327, 1, 500, 327, 326, 1, 500, 326, 345, 1, 500, 345, 326, 1, 500, 327, 328, 1, 500, 328, 327, 1, 500, 327, 346, 1, 500, 346, 327, 1, 500, 328, 329, 1, 500, 329, 328, 1, 500, 328, 347, 1, 500, 347, 328, 1, 500, 329, 330, 1, 500, 330, 329, 1, 500, 329, 348, 1, 500, 348, 329, 1, 500, 330, 331, 1, 500, 331, 330, 1, 500, 330, 349, 1, 500, 349, 330, 1, 500, 331, 332, 1, 500, 332, 331, 1, 500, 331, 350, 1, 500, 350, 331, 1, 500, 332, 333, 1, 500, 333, 332, 1, 500, 332, 351, 1, 500, 351, 332, 1, 500, 333, 334, 1, 500, 334, 333, 1, 500, 333, 352, 1, 500, 352, 333, 1, 500, 334, 335, 1, 500, 335, 334, 1, 500, 334, 353, 1, 500, 353, 334, 1, 500, 335, 336, 1, 500, 336, 335, 1, 500, 335, 354, 1, 500, 354, 335, 1, 500, 336, 337, 1, 500, 337, 336, 1, 500, 336, 355, 1, 500, 355, 336, 1, 500, 337, 338, 1, 500, 338, 337, 1, 500, 337, 356, 1, 500, 356, 337, 1, 500, 338, 339, 1, 500, 339, 338, 1, 500, 338, 357, 1, 500, 357, 338, 1, 500, 339, 340, 1, 500, 340, 339, 1, 500, 339, 358, 1, 500, 358, 339, 1, 500, 340, 341, 1, 500, 341, 340, 1, 500, 340, 359, 1, 500, 359, 340, 1, 500, 341, 342, 1, 500, 342, 341, 1, 500, 341, 360, 1, 500, 360, 341, 1, 500, 342, 361, 1, 500, 361, 342, 1, 500, 343, 344, 1, 500, 344, 343, 1, 500, 344, 345, 1, 500, 345, 344, 1, 500, 345, 346, 1, 500, 346, 345, 1, 500, 346, 347, 1, 500, 347, 346, 1, 500, 347, 348, 1, 500, 348, 347, 1, 500, 348, 349, 1, 500, 349, 348, 1, 500, 349, 350, 1, 500, 350, 349, 1, 500, 350, 351, 1, 500, 351, 350, 1, 500, 351, 352, 1, 500, 352, 351, 1, 500, 352, 353, 1, 500, 353, 352, 1, 500, 353, 354, 1, 500, 354, 353, 1, 500, 354, 355, 1, 500, 355, 354, 1, 500, 355, 356, 1, 500, 356, 355, 1, 500, 356, 357, 1, 500, 357, 356, 1, 500, 357, 358, 1, 500, 358, 357, 1, 500, 358, 359, 1, 500, 359, 358, 1, 500, 359, 360, 1, 500, 360, 359, 1, 500, 360, 361, 1, 500, 361, 360, 1, 500]);
Flow_demands = [100, 1, 1, 1, 1, 1, 1, 1, 1, 1];
s = [1, 1, 1, 1, 1, 1, 1, 1,1, 1];
%t = [2, 2, 2, 2, 2, 2, 2, 2, 2, 2];
t = [361, 361, 361, 361, 361, 361, 361, 361, 361, 361];
Limits = [50, 50, 50, 50, 50, 50, 50, 50, 50, 50];
